************************************************************************
file with basedata            : mm55_.bas
initial value random generator: 99960709
************************************************************************
projects                      :  1
jobs (incl. supersource/sink ):  12
horizon                       :  74
RESOURCES
  - renewable                 :  2   R
  - nonrenewable              :  2   N
  - doubly constrained        :  0   D
************************************************************************
PROJECT INFORMATION:
pronr.  #jobs rel.date duedate tardcost  MPM-Time
    1     10      0       13        7       13
************************************************************************
PRECEDENCE RELATIONS:
jobnr.    #modes  #successors   successors
   0        1          3           1   2   3
   1        3          2           8  10
   2        3          2           4   5
   3        3          2           5   6
   4        3          3           6   9  10
   5        3          1           9
   6        3          1           7
   7        3          1           8
   8        3          1          11
   9        3          1          11
  10        3          1          11
  11        1          0        
************************************************************************
REQUESTS/DURATIONS:
jobnr. mode duration  R 1  R 2  R 3  R 4  E(W 1)  E(W 2)
------------------------------------------------------------------------
  0      1     0       0    0    0    0     0       0
  1      1     4       4    7    8    6    44      56
  2      1     2       4    6    5    9    20      28
  3      1     2       8    6    8    5    28      26
  4      1     1      10    5    7    6    15      13
  5      1     3       9    4    4    6    39      30
  6      1     1       8    7    2    4    15       6
  7      1     4       7    5    6    9    48      60
  8      1     5       6    6    4    8    60      60
  9      1     2       8    6    8    9    28      34
 10      1     4       3   10   10    4    52      56
 11      1     0       0    0    0    0     0       0
************************************************************************
RESOURCEAVAILABILITIES:
  R 1  R 2
   36   113
************************************************************************
RESOURCE LIMITS:
jobnr.  l(R 1)  u(R 1)  l(R 2)  u(R 2)
------------------------------------------------------------------------
  0        0       0       0       0
  1        6      11       7      14
  2        5      10       8      14
  3        7      14       7      13
  4        8      15       7      13
  5        7      13       5      10
  6        8      15       3       6
  7        7      12       8      15
  8        6      12       6      12
  9        7      14       9      17
 10        7      13       7      14
 11        0       0       0       0
************************************************************************
SCENARIOS:
------------------------------------------------------------------------
RESOURCE k = 1
s = 1: (0, 50, 20, 36, 16, 42, 19, 75, 52, 23, 53, 0)
s = 2: (0, 34, 20, 36, 22, 34, 11, 50, 47, 29, 37, 0)
s = 3: (0, 65, 32, 51, 21, 49, 15, 30, 64, 24, 71, 0)
s = 4: (0, 61, 19, 36, 11, 24, 10, 49, 61, 33, 32, 0)
s = 5: (0, 42, 30, 27, 22, 33, 12, 40, 44, 22, 79, 0)
s = 6: (0, 37, 26, 37, 21, 50, 13, 81, 63, 16, 63, 0)
s = 7: (0, 44, 23, 26, 12, 28, 11, 76, 41, 23, 65, 0)
s = 8: (0, 52, 34, 27, 13, 28, 10, 40, 80, 33, 52, 0)
s = 9: (0, 41, 30, 36, 18, 52, 17, 50, 36, 34, 78, 0)
s = 10: (0, 48, 13, 24, 17, 33, 23, 49, 81, 33, 66, 0)
s = 11: (0, 67, 20, 38, 16, 42, 11, 50, 43, 21, 42, 0)
s = 12: (0, 28, 14, 30, 18, 31, 13, 50, 47, 22, 35, 0)
s = 13: (0, 58, 18, 29, 15, 24, 11, 62, 92, 32, 60, 0)
s = 14: (0, 52, 14, 21, 12, 32, 22, 35, 73, 28, 72, 0)
s = 15: (0, 33, 26, 32, 12, 36, 17, 51, 69, 17, 67, 0)
s = 16: (0, 47, 17, 30, 19, 33, 13, 28, 109, 20, 45, 0)
s = 17: (0, 64, 27, 25, 14, 60, 17, 57, 65, 26, 44, 0)
s = 18: (0, 49, 23, 32, 21, 28, 17, 49, 79, 38, 60, 0)
s = 19: (0, 58, 32, 26, 12, 52, 14, 65, 99, 43, 48, 0)
s = 20: (0, 55, 25, 25, 18, 52, 12, 47, 52, 31, 52, 0)
s = 21: (0, 45, 16, 18, 13, 31, 16, 62, 39, 40, 57, 0)
s = 22: (0, 57, 19, 21, 17, 48, 16, 43, 38, 37, 38, 0)
s = 23: (0, 61, 19, 40, 18, 39, 20, 66, 46, 32, 87, 0)
s = 24: (0, 35, 22, 19, 18, 23, 18, 52, 46, 18, 69, 0)
s = 25: (0, 35, 16, 23, 14, 39, 12, 48, 70, 44, 43, 0)
s = 26: (0, 35, 25, 35, 17, 47, 16, 44, 39, 20, 49, 0)
s = 27: (0, 38, 21, 31, 17, 22, 19, 34, 62, 28, 52, 0)
s = 28: (0, 57, 25, 42, 10, 42, 20, 54, 57, 25, 54, 0)
s = 29: (0, 44, 21, 38, 20, 33, 10, 58, 32, 20, 35, 0)
s = 30: (0, 44, 35, 22, 12, 23, 12, 52, 42, 32, 60, 0)
s = 31: (0, 38, 14, 22, 10, 34, 20, 43, 53, 22, 40, 0)
s = 32: (0, 27, 19, 24, 20, 48, 17, 50, 85, 37, 50, 0)
s = 33: (0, 50, 25, 37, 19, 44, 13, 56, 50, 19, 37, 0)
s = 34: (0, 54, 24, 28, 26, 27, 11, 65, 79, 27, 51, 0)
s = 35: (0, 31, 16, 41, 12, 32, 8, 53, 87, 29, 61, 0)
s = 36: (0, 43, 20, 41, 15, 39, 17, 58, 67, 24, 63, 0)
s = 37: (0, 53, 23, 23, 21, 56, 20, 50, 67, 24, 44, 0)
s = 38: (0, 50, 21, 42, 24, 32, 14, 31, 45, 29, 35, 0)
s = 39: (0, 50, 19, 29, 13, 58, 23, 43, 77, 28, 57, 0)
s = 40: (0, 28, 14, 23, 12, 27, 19, 34, 63, 24, 63, 0)
s = 41: (0, 43, 20, 20, 12, 62, 11, 71, 52, 27, 67, 0)
s = 42: (0, 28, 14, 23, 10, 29, 24, 63, 77, 34, 44, 0)
s = 43: (0, 44, 12, 20, 18, 32, 21, 62, 50, 18, 57, 0)
s = 44: (0, 29, 36, 36, 13, 68, 23, 63, 53, 18, 50, 0)
s = 45: (0, 37, 13, 36, 20, 37, 16, 46, 62, 17, 39, 0)
s = 46: (0, 44, 19, 36, 16, 30, 9, 50, 92, 23, 59, 0)
s = 47: (0, 37, 18, 32, 15, 50, 21, 55, 51, 36, 73, 0)
s = 48: (0, 36, 25, 31, 9, 33, 20, 47, 57, 20, 53, 0)
s = 49: (0, 25, 16, 23, 15, 63, 21, 47, 64, 27, 46, 0)
s = 50: (0, 28, 18, 35, 15, 34, 21, 55, 70, 39, 48, 0)
s = 51: (0, 36, 19, 19, 18, 70, 11, 48, 64, 20, 57, 0)
s = 52: (0, 32, 29, 27, 13, 24, 17, 53, 67, 25, 31, 0)
s = 53: (0, 47, 18, 31, 14, 35, 12, 48, 53, 35, 47, 0)
s = 54: (0, 64, 12, 24, 14, 40, 17, 51, 55, 39, 46, 0)
s = 55: (0, 49, 30, 25, 18, 37, 18, 73, 79, 21, 48, 0)
s = 56: (0, 32, 22, 19, 16, 46, 24, 46, 49, 19, 66, 0)
s = 57: (0, 40, 17, 21, 22, 32, 21, 39, 62, 32, 36, 0)
s = 58: (0, 32, 19, 21, 15, 28, 10, 61, 56, 45, 39, 0)
s = 59: (0, 67, 25, 29, 20, 25, 18, 52, 68, 23, 55, 0)
s = 60: (0, 41, 26, 42, 14, 43, 17, 34, 38, 17, 50, 0)
s = 61: (0, 47, 28, 27, 21, 48, 10, 50, 49, 27, 40, 0)
s = 62: (0, 27, 12, 28, 9, 45, 17, 34, 48, 29, 52, 0)
s = 63: (0, 46, 20, 27, 11, 39, 23, 25, 40, 17, 64, 0)
s = 64: (0, 45, 17, 29, 11, 27, 12, 46, 73, 41, 32, 0)
s = 65: (0, 38, 14, 22, 8, 46, 11, 72, 67, 38, 35, 0)
s = 66: (0, 34, 34, 31, 16, 47, 15, 37, 84, 34, 37, 0)
s = 67: (0, 32, 12, 41, 20, 27, 17, 62, 59, 40, 50, 0)
s = 68: (0, 35, 13, 15, 14, 40, 14, 32, 61, 33, 70, 0)
s = 69: (0, 46, 14, 31, 21, 24, 19, 33, 60, 17, 61, 0)
s = 70: (0, 41, 25, 38, 15, 24, 24, 42, 47, 25, 75, 0)
s = 71: (0, 45, 25, 33, 11, 55, 16, 55, 70, 35, 57, 0)
s = 72: (0, 41, 26, 22, 22, 29, 12, 26, 65, 36, 54, 0)
s = 73: (0, 36, 14, 42, 13, 44, 19, 38, 52, 28, 36, 0)
s = 74: (0, 30, 24, 25, 19, 39, 13, 42, 78, 28, 78, 0)
s = 75: (0, 56, 14, 37, 14, 43, 9, 37, 39, 28, 51, 0)
s = 76: (0, 74, 21, 47, 13, 30, 13, 79, 77, 43, 51, 0)
s = 77: (0, 44, 11, 40, 13, 26, 21, 38, 87, 23, 44, 0)
s = 78: (0, 78, 22, 35, 15, 52, 11, 38, 59, 16, 71, 0)
s = 79: (0, 47, 18, 23, 14, 46, 17, 47, 76, 25, 50, 0)
s = 80: (0, 54, 30, 35, 23, 31, 10, 34, 59, 25, 74, 0)
s = 81: (0, 62, 14, 33, 14, 32, 18, 40, 42, 29, 53, 0)
s = 82: (0, 31, 33, 33, 16, 54, 28, 55, 72, 18, 68, 0)
s = 83: (0, 39, 24, 16, 14, 27, 14, 36, 48, 29, 40, 0)
s = 84: (0, 55, 32, 27, 11, 21, 18, 31, 40, 25, 80, 0)
s = 85: (0, 48, 19, 25, 13, 38, 10, 38, 42, 17, 55, 0)
s = 86: (0, 28, 20, 32, 18, 41, 10, 40, 64, 31, 37, 0)
s = 87: (0, 43, 27, 33, 14, 66, 19, 61, 52, 37, 33, 0)
s = 88: (0, 49, 17, 19, 16, 28, 13, 40, 52, 35, 52, 0)
s = 89: (0, 66, 13, 17, 23, 23, 13, 31, 53, 19, 38, 0)
s = 90: (0, 48, 31, 20, 21, 48, 10, 62, 43, 34, 58, 0)
s = 91: (0, 63, 22, 39, 23, 42, 11, 41, 56, 37, 64, 0)
s = 92: (0, 29, 20, 30, 12, 25, 11, 32, 90, 27, 47, 0)
s = 93: (0, 44, 18, 39, 10, 27, 24, 51, 32, 16, 31, 0)
s = 94: (0, 31, 24, 26, 15, 31, 13, 32, 75, 30, 58, 0)
s = 95: (0, 36, 19, 34, 16, 29, 10, 56, 54, 25, 73, 0)
s = 96: (0, 41, 16, 20, 18, 28, 11, 40, 35, 39, 49, 0)
s = 97: (0, 48, 24, 15, 13, 40, 12, 55, 57, 37, 41, 0)
s = 98: (0, 49, 21, 34, 9, 34, 14, 55, 39, 21, 35, 0)
s = 99: (0, 52, 16, 25, 14, 31, 12, 30, 68, 31, 67, 0)
s = 100: (0, 40, 20, 33, 15, 29, 11, 60, 86, 21, 62, 0)
s = 101: (0, 27, 19, 44, 20, 32, 25, 55, 79, 29, 29, 0)
s = 102: (0, 37, 21, 46, 16, 29, 13, 33, 49, 25, 74, 0)
s = 103: (0, 33, 12, 33, 13, 26, 15, 42, 54, 24, 29, 0)
s = 104: (0, 42, 16, 20, 14, 23, 18, 41, 56, 27, 72, 0)
s = 105: (0, 30, 34, 25, 14, 59, 11, 33, 73, 34, 42, 0)
s = 106: (0, 38, 24, 42, 20, 31, 11, 64, 94, 15, 32, 0)
s = 107: (0, 53, 22, 24, 10, 36, 28, 40, 61, 28, 40, 0)
s = 108: (0, 54, 25, 42, 20, 33, 10, 48, 55, 34, 52, 0)
s = 109: (0, 25, 28, 33, 12, 22, 13, 52, 52, 29, 43, 0)
s = 110: (0, 81, 16, 16, 12, 34, 13, 45, 39, 22, 30, 0)
s = 111: (0, 40, 14, 18, 15, 32, 13, 39, 47, 36, 55, 0)
s = 112: (0, 35, 26, 27, 11, 46, 12, 43, 34, 24, 44, 0)
s = 113: (0, 27, 25, 35, 19, 37, 14, 31, 38, 15, 66, 0)
s = 114: (0, 71, 20, 36, 13, 48, 16, 57, 46, 22, 49, 0)
s = 115: (0, 55, 15, 16, 17, 34, 17, 31, 59, 38, 28, 0)
s = 116: (0, 37, 21, 22, 17, 41, 17, 46, 55, 24, 57, 0)
s = 117: (0, 35, 26, 29, 21, 37, 12, 56, 47, 22, 66, 0)
s = 118: (0, 31, 14, 31, 11, 40, 15, 55, 55, 19, 61, 0)
s = 119: (0, 28, 27, 23, 11, 25, 13, 32, 56, 22, 68, 0)
s = 120: (0, 40, 20, 35, 13, 48, 18, 48, 56, 34, 35, 0)
s = 121: (0, 33, 25, 26, 17, 28, 9, 51, 52, 25, 53, 0)
s = 122: (0, 41, 24, 20, 29, 58, 23, 30, 59, 25, 62, 0)
s = 123: (0, 43, 27, 24, 20, 53, 14, 61, 57, 28, 80, 0)
s = 124: (0, 48, 12, 23, 15, 36, 14, 64, 53, 22, 34, 0)
s = 125: (0, 34, 33, 26, 30, 38, 13, 59, 38, 38, 52, 0)
s = 126: (0, 65, 15, 30, 10, 48, 10, 29, 57, 18, 55, 0)
s = 127: (0, 28, 22, 22, 21, 29, 13, 41, 89, 20, 44, 0)
s = 128: (0, 29, 17, 21, 13, 33, 12, 39, 38, 36, 36, 0)
s = 129: (0, 32, 23, 36, 9, 65, 15, 35, 63, 41, 30, 0)
s = 130: (0, 47, 20, 30, 11, 31, 10, 37, 57, 42, 49, 0)
s = 131: (0, 50, 23, 15, 13, 44, 12, 81, 43, 19, 39, 0)
s = 132: (0, 80, 15, 35, 27, 32, 16, 45, 39, 31, 58, 0)
s = 133: (0, 29, 15, 30, 12, 36, 18, 48, 62, 28, 45, 0)
s = 134: (0, 37, 19, 25, 23, 48, 18, 61, 75, 34, 46, 0)
s = 135: (0, 34, 17, 16, 13, 35, 18, 41, 79, 39, 57, 0)
s = 136: (0, 39, 16, 43, 17, 22, 18, 62, 47, 25, 57, 0)
s = 137: (0, 33, 13, 25, 25, 55, 14, 72, 59, 32, 62, 0)
s = 138: (0, 55, 16, 18, 19, 27, 17, 37, 87, 31, 34, 0)
s = 139: (0, 49, 19, 46, 14, 43, 13, 37, 83, 18, 49, 0)
s = 140: (0, 58, 18, 27, 17, 67, 11, 36, 97, 30, 44, 0)
s = 141: (0, 48, 26, 24, 9, 36, 11, 75, 47, 28, 39, 0)
s = 142: (0, 59, 26, 35, 11, 28, 26, 56, 42, 38, 49, 0)
s = 143: (0, 31, 16, 23, 14, 34, 10, 56, 90, 36, 48, 0)
s = 144: (0, 67, 26, 24, 11, 24, 15, 31, 47, 18, 44, 0)
s = 145: (0, 40, 26, 38, 24, 60, 30, 43, 58, 30, 51, 0)
s = 146: (0, 42, 21, 35, 16, 63, 15, 39, 60, 30, 29, 0)
s = 147: (0, 68, 16, 33, 12, 30, 21, 29, 43, 20, 58, 0)
s = 148: (0, 30, 17, 18, 12, 44, 9, 72, 43, 25, 83, 0)
s = 149: (0, 47, 17, 46, 14, 44, 12, 44, 44, 20, 51, 0)
s = 150: (0, 58, 29, 31, 16, 48, 13, 34, 36, 31, 75, 0)
s = 151: (0, 33, 25, 29, 9, 34, 22, 34, 66, 19, 60, 0)
s = 152: (0, 43, 29, 33, 14, 40, 20, 60, 42, 24, 53, 0)
s = 153: (0, 49, 20, 28, 14, 33, 20, 31, 41, 22, 49, 0)
s = 154: (0, 67, 17, 25, 24, 28, 12, 42, 50, 29, 84, 0)
s = 155: (0, 64, 26, 38, 18, 31, 9, 49, 80, 31, 37, 0)
s = 156: (0, 49, 14, 37, 10, 34, 10, 48, 40, 19, 68, 0)
s = 157: (0, 35, 28, 27, 12, 40, 18, 68, 44, 23, 40, 0)
s = 158: (0, 36, 23, 18, 23, 28, 17, 55, 52, 26, 38, 0)
s = 159: (0, 58, 23, 27, 14, 36, 15, 42, 53, 30, 42, 0)
s = 160: (0, 27, 28, 18, 13, 44, 21, 52, 44, 28, 31, 0)
s = 161: (0, 37, 23, 20, 19, 58, 12, 55, 63, 18, 37, 0)
s = 162: (0, 47, 34, 23, 20, 37, 18, 38, 61, 31, 31, 0)
s = 163: (0, 29, 15, 40, 11, 26, 12, 51, 72, 45, 28, 0)
s = 164: (0, 36, 18, 22, 16, 31, 12, 61, 48, 40, 41, 0)
s = 165: (0, 26, 20, 45, 11, 36, 14, 41, 66, 42, 83, 0)
s = 166: (0, 46, 19, 30, 21, 45, 21, 50, 72, 46, 79, 0)
s = 167: (0, 26, 26, 28, 17, 31, 15, 49, 37, 21, 54, 0)
s = 168: (0, 38, 21, 22, 16, 29, 14, 69, 50, 23, 54, 0)
s = 169: (0, 32, 23, 28, 13, 44, 13, 46, 85, 31, 67, 0)
s = 170: (0, 32, 29, 36, 10, 30, 24, 56, 59, 35, 44, 0)
s = 171: (0, 44, 19, 28, 22, 48, 11, 44, 95, 31, 39, 0)
s = 172: (0, 30, 12, 33, 16, 35, 14, 47, 76, 25, 50, 0)
s = 173: (0, 61, 18, 30, 9, 44, 14, 40, 55, 32, 64, 0)
s = 174: (0, 34, 33, 21, 15, 37, 14, 43, 47, 43, 37, 0)
s = 175: (0, 37, 11, 26, 13, 35, 25, 51, 66, 41, 74, 0)
s = 176: (0, 53, 16, 32, 14, 37, 17, 39, 78, 37, 29, 0)
s = 177: (0, 57, 13, 26, 21, 30, 14, 39, 60, 28, 36, 0)
s = 178: (0, 57, 26, 34, 21, 41, 10, 48, 68, 31, 98, 0)
s = 179: (0, 43, 23, 26, 13, 37, 12, 49, 67, 39, 79, 0)
s = 180: (0, 67, 28, 29, 12, 43, 20, 41, 49, 19, 65, 0)
s = 181: (0, 59, 19, 48, 16, 27, 10, 66, 69, 36, 62, 0)
s = 182: (0, 29, 28, 23, 13, 58, 16, 46, 56, 28, 48, 0)
s = 183: (0, 48, 19, 25, 12, 22, 14, 50, 42, 23, 48, 0)
s = 184: (0, 34, 16, 26, 17, 36, 13, 60, 53, 35, 43, 0)
s = 185: (0, 51, 28, 26, 14, 31, 13, 77, 85, 28, 55, 0)
s = 186: (0, 39, 12, 23, 24, 31, 16, 40, 45, 27, 51, 0)
s = 187: (0, 62, 22, 46, 15, 39, 20, 53, 44, 26, 33, 0)
s = 188: (0, 38, 15, 27, 14, 46, 16, 34, 48, 31, 55, 0)
s = 189: (0, 32, 26, 49, 13, 49, 25, 50, 86, 23, 34, 0)
s = 190: (0, 38, 25, 38, 20, 47, 12, 57, 39, 18, 34, 0)
s = 191: (0, 50, 18, 17, 14, 53, 9, 45, 79, 21, 54, 0)
s = 192: (0, 55, 15, 18, 17, 34, 11, 38, 69, 20, 43, 0)
s = 193: (0, 50, 14, 35, 16, 32, 16, 28, 63, 34, 62, 0)
s = 194: (0, 33, 11, 28, 11, 35, 16, 44, 42, 28, 36, 0)
s = 195: (0, 45, 16, 24, 20, 38, 16, 57, 41, 43, 56, 0)
s = 196: (0, 53, 17, 22, 14, 35, 22, 51, 45, 22, 33, 0)
s = 197: (0, 61, 37, 35, 13, 39, 13, 38, 44, 28, 42, 0)
s = 198: (0, 34, 17, 21, 17, 28, 17, 51, 54, 19, 43, 0)
s = 199: (0, 42, 21, 27, 16, 50, 12, 37, 69, 28, 56, 0)
s = 200: (0, 53, 21, 20, 25, 56, 10, 57, 50, 25, 96, 0)
------------------------------------------------------------------------
RESOURCE k = 2
s = 1: (0, 63, 27, 33, 14, 32, 8, 94, 52, 28, 57, 0)
s = 2: (0, 43, 28, 33, 19, 26, 5, 63, 47, 35, 40, 0)
s = 3: (0, 82, 44, 47, 18, 38, 6, 37, 64, 29, 77, 0)
s = 4: (0, 77, 26, 33, 10, 19, 4, 61, 61, 40, 34, 0)
s = 5: (0, 53, 42, 25, 19, 26, 5, 49, 44, 27, 85, 0)
s = 6: (0, 47, 37, 35, 18, 38, 6, 101, 63, 19, 68, 0)
s = 7: (0, 56, 32, 24, 11, 22, 5, 95, 41, 28, 70, 0)
s = 8: (0, 66, 47, 25, 12, 22, 4, 50, 80, 40, 56, 0)
s = 9: (0, 52, 41, 33, 15, 40, 7, 62, 36, 41, 84, 0)
s = 10: (0, 61, 19, 22, 15, 25, 10, 61, 81, 39, 72, 0)
s = 11: (0, 85, 27, 35, 14, 32, 5, 63, 43, 25, 45, 0)
s = 12: (0, 36, 19, 28, 16, 24, 5, 62, 47, 27, 38, 0)
s = 13: (0, 73, 24, 27, 13, 19, 5, 77, 92, 39, 65, 0)
s = 14: (0, 66, 20, 20, 10, 24, 9, 44, 73, 34, 78, 0)
s = 15: (0, 42, 37, 30, 10, 28, 7, 64, 69, 21, 72, 0)
s = 16: (0, 60, 24, 28, 17, 25, 6, 35, 109, 24, 49, 0)
s = 17: (0, 82, 38, 23, 12, 47, 7, 71, 65, 32, 48, 0)
s = 18: (0, 62, 32, 30, 19, 22, 7, 62, 79, 47, 64, 0)
s = 19: (0, 74, 45, 24, 11, 40, 6, 82, 99, 52, 51, 0)
s = 20: (0, 70, 35, 23, 15, 40, 5, 58, 52, 38, 56, 0)
s = 21: (0, 57, 22, 17, 11, 24, 7, 78, 39, 49, 62, 0)
s = 22: (0, 73, 27, 19, 15, 37, 7, 53, 38, 45, 41, 0)
s = 23: (0, 78, 27, 37, 15, 30, 8, 82, 46, 39, 93, 0)
s = 24: (0, 44, 30, 17, 16, 18, 8, 65, 46, 22, 75, 0)
s = 25: (0, 45, 23, 21, 12, 30, 5, 59, 70, 53, 47, 0)
s = 26: (0, 44, 35, 32, 14, 36, 7, 55, 39, 24, 53, 0)
s = 27: (0, 48, 29, 29, 15, 17, 8, 42, 62, 34, 56, 0)
s = 28: (0, 72, 35, 39, 9, 32, 8, 68, 57, 30, 58, 0)
s = 29: (0, 56, 30, 36, 17, 25, 4, 72, 32, 24, 37, 0)
s = 30: (0, 56, 49, 20, 10, 18, 5, 64, 42, 39, 65, 0)
s = 31: (0, 49, 20, 21, 8, 27, 8, 54, 53, 27, 43, 0)
s = 32: (0, 35, 27, 22, 17, 37, 7, 62, 85, 45, 54, 0)
s = 33: (0, 63, 34, 34, 16, 34, 6, 70, 50, 23, 40, 0)
s = 34: (0, 68, 33, 26, 22, 21, 5, 82, 79, 33, 55, 0)
s = 35: (0, 40, 22, 38, 10, 25, 4, 66, 87, 35, 66, 0)
s = 36: (0, 55, 28, 38, 13, 30, 7, 72, 67, 29, 68, 0)
s = 37: (0, 67, 32, 21, 18, 43, 8, 63, 67, 29, 47, 0)
s = 38: (0, 64, 30, 39, 21, 25, 6, 39, 45, 35, 38, 0)
s = 39: (0, 63, 26, 27, 11, 45, 9, 54, 77, 34, 61, 0)
s = 40: (0, 36, 20, 22, 10, 21, 8, 42, 63, 29, 67, 0)
s = 41: (0, 55, 28, 18, 10, 48, 5, 89, 52, 32, 72, 0)
s = 42: (0, 36, 19, 22, 9, 22, 10, 78, 77, 41, 48, 0)
s = 43: (0, 56, 17, 18, 16, 25, 9, 77, 50, 22, 61, 0)
s = 44: (0, 37, 50, 33, 11, 52, 9, 78, 53, 22, 54, 0)
s = 45: (0, 46, 18, 33, 17, 29, 7, 57, 62, 20, 42, 0)
s = 46: (0, 55, 26, 34, 14, 23, 4, 62, 92, 28, 63, 0)
s = 47: (0, 47, 25, 29, 13, 39, 9, 69, 51, 43, 78, 0)
s = 48: (0, 46, 35, 29, 7, 26, 8, 59, 57, 24, 58, 0)
s = 49: (0, 31, 22, 21, 13, 49, 9, 58, 64, 32, 49, 0)
s = 50: (0, 36, 25, 33, 13, 26, 9, 69, 70, 47, 52, 0)
s = 51: (0, 45, 26, 17, 16, 54, 5, 59, 64, 25, 62, 0)
s = 52: (0, 40, 40, 25, 11, 18, 7, 66, 67, 30, 33, 0)
s = 53: (0, 60, 26, 29, 12, 27, 5, 60, 53, 42, 50, 0)
s = 54: (0, 81, 16, 22, 12, 31, 7, 63, 55, 47, 50, 0)
s = 55: (0, 62, 42, 23, 15, 29, 8, 91, 79, 25, 52, 0)
s = 56: (0, 41, 30, 18, 14, 36, 10, 57, 49, 23, 71, 0)
s = 57: (0, 51, 24, 20, 19, 25, 9, 48, 62, 38, 39, 0)
s = 58: (0, 40, 26, 19, 13, 22, 4, 76, 56, 54, 42, 0)
s = 59: (0, 85, 35, 27, 18, 19, 8, 65, 68, 28, 59, 0)
s = 60: (0, 52, 36, 39, 12, 33, 7, 42, 38, 21, 54, 0)
s = 61: (0, 60, 39, 25, 18, 37, 4, 63, 49, 33, 43, 0)
s = 62: (0, 35, 17, 26, 8, 35, 7, 43, 48, 35, 56, 0)
s = 63: (0, 59, 28, 25, 10, 30, 9, 31, 40, 21, 68, 0)
s = 64: (0, 57, 24, 27, 9, 21, 5, 57, 73, 50, 34, 0)
s = 65: (0, 48, 19, 20, 7, 36, 5, 90, 67, 46, 38, 0)
s = 66: (0, 43, 47, 29, 14, 36, 6, 46, 84, 41, 39, 0)
s = 67: (0, 40, 17, 38, 17, 21, 7, 78, 59, 48, 54, 0)
s = 68: (0, 45, 18, 14, 12, 31, 6, 40, 61, 40, 75, 0)
s = 69: (0, 58, 19, 29, 19, 19, 8, 41, 60, 21, 66, 0)
s = 70: (0, 52, 34, 35, 13, 19, 10, 52, 47, 30, 81, 0)
s = 71: (0, 57, 35, 31, 10, 42, 7, 68, 70, 42, 61, 0)
s = 72: (0, 52, 36, 21, 19, 23, 5, 33, 65, 43, 58, 0)
s = 73: (0, 46, 19, 39, 11, 34, 8, 48, 52, 34, 39, 0)
s = 74: (0, 38, 33, 24, 16, 30, 6, 53, 78, 34, 83, 0)
s = 75: (0, 71, 20, 35, 12, 33, 4, 46, 39, 34, 55, 0)
s = 76: (0, 94, 29, 43, 11, 23, 6, 99, 77, 52, 55, 0)
s = 77: (0, 55, 16, 37, 12, 20, 9, 47, 87, 28, 47, 0)
s = 78: (0, 99, 31, 33, 13, 40, 5, 48, 59, 20, 77, 0)
s = 79: (0, 59, 24, 21, 12, 35, 7, 58, 76, 31, 54, 0)
s = 80: (0, 69, 42, 33, 20, 24, 4, 43, 59, 30, 80, 0)
s = 81: (0, 78, 19, 31, 12, 25, 7, 50, 42, 36, 57, 0)
s = 82: (0, 40, 47, 31, 14, 42, 11, 68, 72, 22, 73, 0)
s = 83: (0, 50, 33, 15, 12, 21, 6, 45, 48, 35, 43, 0)
s = 84: (0, 70, 44, 25, 10, 16, 7, 39, 40, 31, 86, 0)
s = 85: (0, 60, 27, 23, 11, 29, 4, 48, 42, 21, 59, 0)
s = 86: (0, 36, 28, 29, 16, 32, 4, 49, 64, 38, 40, 0)
s = 87: (0, 55, 38, 31, 13, 51, 8, 76, 52, 45, 35, 0)
s = 88: (0, 63, 23, 18, 14, 22, 5, 49, 52, 43, 56, 0)
s = 89: (0, 83, 18, 16, 20, 18, 5, 38, 53, 23, 40, 0)
s = 90: (0, 60, 44, 18, 18, 37, 4, 77, 43, 41, 63, 0)
s = 91: (0, 80, 30, 36, 20, 32, 5, 51, 56, 45, 69, 0)
s = 92: (0, 36, 28, 28, 11, 19, 5, 39, 90, 32, 51, 0)
s = 93: (0, 56, 26, 36, 9, 21, 10, 64, 32, 19, 34, 0)
s = 94: (0, 40, 33, 25, 13, 24, 6, 40, 75, 37, 63, 0)
s = 95: (0, 46, 26, 31, 14, 23, 4, 70, 54, 30, 79, 0)
s = 96: (0, 53, 23, 19, 16, 22, 5, 50, 35, 47, 53, 0)
s = 97: (0, 61, 33, 14, 12, 31, 5, 69, 57, 45, 44, 0)
s = 98: (0, 62, 29, 32, 8, 26, 6, 68, 39, 25, 38, 0)
s = 99: (0, 66, 23, 23, 12, 24, 5, 38, 68, 37, 72, 0)
s = 100: (0, 50, 27, 31, 13, 23, 5, 75, 86, 25, 67, 0)
s = 101: (0, 34, 26, 41, 17, 24, 10, 68, 79, 35, 31, 0)
s = 102: (0, 47, 30, 42, 14, 23, 5, 41, 49, 30, 80, 0)
s = 103: (0, 41, 16, 30, 11, 20, 6, 52, 54, 29, 31, 0)
s = 104: (0, 53, 23, 18, 12, 17, 8, 51, 56, 33, 77, 0)
s = 105: (0, 39, 47, 24, 12, 45, 5, 41, 73, 41, 45, 0)
s = 106: (0, 48, 33, 39, 17, 24, 5, 80, 94, 19, 35, 0)
s = 107: (0, 67, 31, 22, 9, 28, 11, 50, 61, 34, 43, 0)
s = 108: (0, 68, 35, 39, 17, 26, 4, 60, 55, 42, 56, 0)
s = 109: (0, 32, 39, 31, 10, 17, 6, 64, 52, 35, 46, 0)
s = 110: (0, 103, 23, 15, 10, 26, 6, 56, 39, 27, 32, 0)
s = 111: (0, 50, 20, 17, 13, 25, 6, 49, 47, 44, 59, 0)
s = 112: (0, 45, 36, 25, 10, 36, 5, 54, 34, 29, 47, 0)
s = 113: (0, 34, 34, 33, 16, 29, 6, 38, 38, 19, 71, 0)
s = 114: (0, 91, 28, 34, 12, 37, 7, 72, 46, 26, 53, 0)
s = 115: (0, 70, 20, 14, 15, 26, 7, 38, 59, 46, 30, 0)
s = 116: (0, 47, 29, 20, 15, 31, 7, 58, 55, 28, 62, 0)
s = 117: (0, 44, 37, 27, 18, 29, 5, 70, 47, 27, 71, 0)
s = 118: (0, 39, 19, 29, 10, 31, 6, 69, 55, 23, 65, 0)
s = 119: (0, 36, 38, 22, 10, 19, 5, 40, 56, 27, 73, 0)
s = 120: (0, 51, 27, 32, 12, 37, 7, 60, 56, 41, 37, 0)
s = 121: (0, 42, 35, 24, 15, 21, 4, 63, 52, 31, 57, 0)
s = 122: (0, 52, 33, 19, 25, 44, 10, 38, 59, 30, 67, 0)
s = 123: (0, 55, 37, 22, 18, 41, 6, 76, 57, 34, 86, 0)
s = 124: (0, 61, 17, 21, 13, 28, 6, 80, 53, 27, 37, 0)
s = 125: (0, 43, 46, 24, 26, 29, 5, 73, 38, 46, 56, 0)
s = 126: (0, 82, 21, 28, 9, 37, 4, 36, 57, 22, 59, 0)
s = 127: (0, 36, 30, 21, 19, 23, 6, 51, 89, 25, 48, 0)
s = 128: (0, 37, 24, 20, 12, 25, 5, 48, 38, 43, 39, 0)
s = 129: (0, 41, 31, 33, 8, 50, 6, 44, 63, 49, 33, 0)
s = 130: (0, 60, 27, 28, 10, 24, 4, 46, 57, 51, 53, 0)
s = 131: (0, 64, 31, 14, 11, 34, 5, 101, 43, 23, 42, 0)
s = 132: (0, 101, 20, 33, 23, 25, 7, 56, 39, 37, 63, 0)
s = 133: (0, 37, 21, 28, 10, 28, 8, 59, 62, 34, 48, 0)
s = 134: (0, 47, 26, 23, 20, 37, 8, 76, 75, 41, 50, 0)
s = 135: (0, 43, 23, 15, 12, 27, 8, 51, 79, 47, 62, 0)
s = 136: (0, 49, 22, 40, 15, 17, 7, 77, 47, 30, 61, 0)
s = 137: (0, 41, 18, 24, 22, 42, 6, 90, 59, 39, 67, 0)
s = 138: (0, 70, 22, 16, 17, 21, 7, 47, 87, 37, 36, 0)
s = 139: (0, 62, 26, 42, 12, 33, 6, 46, 83, 22, 52, 0)
s = 140: (0, 74, 25, 25, 14, 51, 5, 44, 97, 36, 47, 0)
s = 141: (0, 61, 36, 23, 8, 28, 5, 94, 47, 33, 42, 0)
s = 142: (0, 75, 36, 32, 10, 22, 11, 70, 42, 46, 53, 0)
s = 143: (0, 39, 22, 22, 12, 26, 4, 69, 90, 44, 52, 0)
s = 144: (0, 85, 37, 22, 10, 18, 6, 39, 47, 21, 48, 0)
s = 145: (0, 51, 36, 35, 21, 46, 12, 54, 58, 36, 54, 0)
s = 146: (0, 54, 30, 32, 14, 48, 6, 49, 60, 36, 31, 0)
s = 147: (0, 86, 23, 31, 11, 23, 9, 36, 43, 24, 62, 0)
s = 148: (0, 38, 24, 17, 11, 34, 4, 90, 43, 30, 90, 0)
s = 149: (0, 59, 23, 42, 12, 34, 5, 55, 44, 24, 55, 0)
s = 150: (0, 74, 40, 29, 14, 37, 5, 43, 36, 37, 80, 0)
s = 151: (0, 42, 35, 27, 8, 27, 9, 42, 66, 23, 65, 0)
s = 152: (0, 55, 41, 30, 12, 31, 8, 75, 42, 29, 57, 0)
s = 153: (0, 62, 28, 26, 12, 26, 8, 39, 41, 27, 53, 0)
s = 154: (0, 85, 23, 23, 21, 22, 5, 52, 50, 36, 90, 0)
s = 155: (0, 82, 37, 36, 16, 24, 4, 62, 80, 37, 40, 0)
s = 156: (0, 62, 19, 34, 9, 27, 4, 60, 40, 23, 74, 0)
s = 157: (0, 45, 38, 25, 10, 31, 7, 85, 44, 28, 43, 0)
s = 158: (0, 45, 31, 16, 20, 22, 7, 69, 52, 31, 41, 0)
s = 159: (0, 74, 32, 25, 12, 28, 6, 53, 53, 36, 45, 0)
s = 160: (0, 35, 39, 17, 11, 34, 9, 65, 44, 34, 34, 0)
s = 161: (0, 47, 32, 18, 16, 45, 5, 68, 63, 21, 40, 0)
s = 162: (0, 60, 47, 22, 17, 29, 7, 47, 61, 38, 34, 0)
s = 163: (0, 37, 21, 37, 9, 20, 5, 63, 72, 54, 31, 0)
s = 164: (0, 46, 25, 21, 14, 24, 5, 76, 48, 48, 44, 0)
s = 165: (0, 33, 28, 42, 10, 28, 6, 51, 66, 51, 89, 0)
s = 166: (0, 58, 27, 27, 18, 35, 9, 62, 72, 56, 85, 0)
s = 167: (0, 32, 36, 26, 15, 24, 6, 61, 37, 25, 58, 0)
s = 168: (0, 48, 29, 20, 14, 22, 6, 86, 50, 28, 58, 0)
s = 169: (0, 41, 33, 26, 12, 34, 5, 58, 85, 38, 72, 0)
s = 170: (0, 40, 40, 34, 8, 23, 10, 70, 59, 42, 48, 0)
s = 171: (0, 56, 26, 26, 20, 37, 5, 55, 95, 38, 42, 0)
s = 172: (0, 38, 16, 31, 14, 27, 6, 59, 76, 31, 54, 0)
s = 173: (0, 77, 26, 28, 8, 34, 6, 50, 55, 39, 69, 0)
s = 174: (0, 44, 46, 20, 13, 29, 6, 54, 47, 52, 40, 0)
s = 175: (0, 47, 15, 24, 11, 27, 10, 63, 66, 50, 80, 0)
s = 176: (0, 68, 22, 29, 12, 28, 7, 49, 78, 44, 31, 0)
s = 177: (0, 73, 18, 24, 18, 23, 6, 49, 60, 33, 39, 0)
s = 178: (0, 73, 36, 32, 19, 31, 4, 60, 68, 38, 105, 0)
s = 179: (0, 55, 32, 24, 11, 29, 5, 61, 67, 47, 85, 0)
s = 180: (0, 86, 39, 27, 11, 33, 8, 51, 49, 23, 70, 0)
s = 181: (0, 75, 27, 45, 14, 21, 4, 82, 69, 43, 67, 0)
s = 182: (0, 37, 39, 21, 11, 45, 7, 58, 56, 33, 52, 0)
s = 183: (0, 61, 27, 23, 11, 17, 6, 62, 42, 28, 51, 0)
s = 184: (0, 43, 22, 24, 15, 28, 6, 75, 53, 42, 46, 0)
s = 185: (0, 65, 39, 24, 13, 24, 5, 96, 85, 34, 59, 0)
s = 186: (0, 49, 16, 22, 21, 24, 7, 50, 45, 33, 55, 0)
s = 187: (0, 79, 30, 43, 13, 30, 8, 66, 44, 32, 35, 0)
s = 188: (0, 48, 21, 25, 12, 35, 7, 43, 48, 37, 59, 0)
s = 189: (0, 41, 36, 46, 11, 38, 10, 62, 86, 27, 37, 0)
s = 190: (0, 48, 35, 35, 17, 36, 5, 71, 39, 22, 37, 0)
s = 191: (0, 63, 25, 16, 12, 41, 4, 56, 79, 26, 58, 0)
s = 192: (0, 70, 21, 16, 14, 26, 5, 48, 69, 24, 46, 0)
s = 193: (0, 63, 19, 33, 14, 25, 7, 35, 63, 41, 67, 0)
s = 194: (0, 42, 15, 26, 10, 27, 7, 55, 42, 34, 39, 0)
s = 195: (0, 57, 22, 22, 17, 29, 7, 72, 41, 53, 60, 0)
s = 196: (0, 67, 24, 21, 12, 27, 9, 64, 45, 26, 35, 0)
s = 197: (0, 78, 52, 33, 12, 30, 5, 48, 44, 34, 45, 0)
s = 198: (0, 44, 24, 20, 15, 22, 7, 63, 54, 23, 46, 0)
s = 199: (0, 54, 29, 26, 14, 39, 5, 47, 69, 34, 60, 0)
s = 200: (0, 67, 30, 19, 22, 43, 4, 71, 50, 30, 103, 0)
************************************************************************
ES/LS-VALUES:
jobnr.   ES(i)    LS(i)
------------------------------------------------------------------------
  0        0        0
  1        0       56
  2        0       49
  3        0       51
  4        3       53
  5        3       64
  6        5       55
  7        7       57
  8       13       64
  9        8       70
 10        7       66
 11       22       74
************************************************************************
BIG-M-VALUES:
M1 = 38, M2 = 218
************************************************************************
